presolving:
(round 1, fast)       19650 del vars, 19725 del conss, 0 add conss, 19729 chg bounds, 0 chg sides, 19650 chg coeffs, 0 upgd conss, 0 impls, 0 clqs
(round 2, fast)       19725 del vars, 19800 del conss, 0 add conss, 19729 chg bounds, 0 chg sides, 19650 chg coeffs, 0 upgd conss, 0 impls, 0 clqs
(round 3, fast)       19800 del vars, 19800 del conss, 0 add conss, 19729 chg bounds, 0 chg sides, 19650 chg coeffs, 0 upgd conss, 0 impls, 0 clqs
   (0.3s) running MILP presolver
   (0.4s) MILP presolver (2 rounds): 0 aggregations, 0 fixings, 0 bound changes
(round 4, exhaustive) 19800 del vars, 19874 del conss, 0 add conss, 19729 chg bounds, 0 chg sides, 19650 chg coeffs, 0 upgd conss, 0 impls, 0 clqs
(round 5, exhaustive) 19800 del vars, 19874 del conss, 0 add conss, 19729 chg bounds, 0 chg sides, 19650 chg coeffs, 19651 upgd conss, 0 impls, 0 clqs
   (0.7s) probing: 51/262 (19.5%) - 0 fixings, 0 aggregations, 0 implications, 0 bound changes
   (0.7s) probing aborted: 50/50 successive totally useless probings
   (0.8s) symmetry computation started: requiring (bin +, int -, cont +), (fixed: bin -, int +, cont -)
   (0.8s) no symmetry present
presolving (6 rounds: 6 fast, 3 medium, 3 exhaustive):
 19800 deleted vars, 19874 deleted constraints, 0 added constraints, 19729 tightened bounds, 0 added holes, 0 changed sides, 19650 changed coefficients
 19650 implications, 0 cliques
presolved problem has 19912 variables (262 bin, 0 int, 0 impl, 19650 cont) and 19988 constraints
  19650 constraints of type <varbound>
    337 constraints of type <linear>
      1 constraints of type <logicor>
Presolving Time: 0.72

 time | node  | left  |LP iter|LP it/n|mem/heur|mdpt |vars |cons |rows |cuts |sepa|confs|strbr|  dualbound   | primalbound  |  gap   | compl. 
p 0.9s|     1 |     0 |    75 |     - |   locks|   0 |  19k|  19k|  19k|   0 |  0 |   0 |   0 | 3.771497e+04 | 5.067700e+05 |1243.68%| unknown
i 0.9s|     1 |     0 |    75 |     - |  oneopt|   0 |  19k|  19k|  19k|   0 |  0 |   0 |   0 | 3.771497e+04 | 2.166780e+05 | 474.51%| unknown
  3.5s|     1 |     0 |  5286 |     - |   223M |   0 |  19k|  19k|  19k|   0 |  0 |   0 |   0 | 1.519785e+05 | 2.166780e+05 |  42.57%| unknown
r 3.5s|     1 |     0 |  5286 |     - |simplero|   0 |  19k|  19k|  19k|   0 |  0 |   0 |   0 | 1.519785e+05 | 2.037820e+05 |  34.09%| unknown
r 4.5s|     1 |     0 |  7052 |     - |intshift|   0 |  19k|  19k|  19k|   0 |  2 |   0 |   0 | 1.519785e+05 | 1.956900e+05 |  28.76%| unknown
d 4.9s|     1 |     0 |  7558 |     - |farkasdi|   0 |  19k|  19k|  19k|   0 |  2 |   0 |   0 | 1.519785e+05 | 1.956370e+05 |  28.73%| unknown
d 5.0s|     1 |     0 |  7750 |     - |farkasdi|   0 |  19k|  19k|  19k|   0 |  2 |   0 |   0 | 1.519785e+05 | 1.956182e+05 |  28.71%| unknown
d 5.3s|     1 |     0 |  8254 |     - |farkasdi|   0 |  19k|  19k|  19k|   0 |  2 |   0 |   0 | 1.519785e+05 | 1.954416e+05 |  28.60%| unknown
d 5.4s|     1 |     0 |  8354 |     - |farkasdi|   0 |  19k|  19k|  19k|   0 |  2 |   0 |   0 | 1.519785e+05 | 1.940557e+05 |  27.69%| unknown
d 5.7s|     1 |     0 |  8851 |     - |farkasdi|   0 |  19k|  19k|  19k|   0 |  2 |   0 |   0 | 1.519785e+05 | 1.927158e+05 |  26.80%| unknown
d 5.8s|     1 |     0 |  8920 |     - |farkasdi|   0 |  19k|  19k|  19k|   0 |  2 |   0 |   0 | 1.519785e+05 | 1.839232e+05 |  21.02%| unknown
d 7.8s|     1 |     0 | 11922 |     - |farkasdi|   0 |  19k|  19k|  19k|   0 |  2 |   0 |   0 | 1.519785e+05 | 1.817236e+05 |  19.57%| unknown
d10.1s|     1 |     0 | 15267 |     - |farkasdi|   0 |  19k|  19k|  19k|   0 |  2 |   0 |   0 | 1.519785e+05 | 1.771112e+05 |  16.54%| unknown
d11.0s|     1 |     0 | 16759 |     - |farkasdi|   0 |  19k|  19k|  19k|   0 |  2 |   0 |   0 | 1.519785e+05 | 1.744770e+05 |  14.80%| unknown
L12.7s|     1 |     0 | 17135 |     - |    rens|   0 |  19k|  19k|  19k|   0 |  2 |   0 |   0 | 1.519785e+05 | 1.527810e+05 |   0.53%| unknown
 time | node  | left  |LP iter|LP it/n|mem/heur|mdpt |vars |cons |rows |cuts |sepa|confs|strbr|  dualbound   | primalbound  |  gap   | compl. 
 12.9s|     1 |     0 | 17135 |     - |   279M |   0 |  19k|  19k|  19k|   0 |  2 |   0 |   0 | 1.519785e+05 | 1.527810e+05 |   0.53%| unknown
 12.9s|     1 |     0 | 17135 |     - |   283M |   0 |  19k|  19k|  19k|   0 |  2 |   0 |   0 | 1.519785e+05 | 1.527810e+05 |   0.53%| unknown
 13.1s|     1 |     0 | 17135 |     - |   283M |   0 |  19k|  19k|  12k|   0 |  3 |   0 |   0 | 1.519785e+05 | 1.527810e+05 |   0.53%| unknown
(run 1, node 1) restarting after 100 global fixings of integer variables

presolving:
(round 1, fast)       7600 del vars, 0 del conss, 0 add conss, 0 chg bounds, 0 chg sides, 100 chg coeffs, 0 upgd conss, 19650 impls, 0 clqs
   (13.6s) running MILP presolver
   (13.6s) MILP presolver found nothing
presolving (2 rounds: 2 fast, 1 medium, 1 exhaustive):
 7600 deleted vars, 0 deleted constraints, 0 added constraints, 0 tightened bounds, 0 added holes, 0 changed sides, 100 changed coefficients
 19650 implications, 0 cliques
presolved problem has 12312 variables (162 bin, 0 int, 0 impl, 12150 cont) and 12388 constraints
  12150 constraints of type <varbound>
    237 constraints of type <linear>
      1 constraints of type <logicor>
Presolving Time: 1.25
transformed 48/83 original solutions to the transformed problem space

 time | node  | left  |LP iter|LP it/n|mem/heur|mdpt |vars |cons |rows |cuts |sepa|confs|strbr|  dualbound   | primalbound  |  gap   | compl. 
 15.1s|     1 |     0 | 20748 |     - |   336M |   0 |  12k|  12k|  12k|   0 |  0 |   0 |   0 | 1.519785e+05 | 1.527810e+05 |   0.53%| unknown
 15.1s|     1 |     0 | 20748 |     - |   336M |   0 |  12k|  12k|  12k|   0 |  0 |   0 |   0 | 1.519785e+05 | 1.527810e+05 |   0.53%| unknown
 15.3s|     1 |     0 | 20748 |     - |   338M |   0 |  12k|  12k|  11k|   0 |  1 |   0 |   0 | 1.519785e+05 | 1.527810e+05 |   0.53%| unknown
 23.2s|     1 |     2 | 23265 |     - |   345M |   0 |  12k|  11k|  11k|   0 |  3 |  14k|  26 | 1.521762e+05 | 1.527810e+05 |   0.40%| unknown
(run 2, node 1) restarting after 8 global fixings of integer variables

presolving:
(round 1, fast)       608 del vars, 0 del conss, 0 add conss, 0 chg bounds, 0 chg sides, 5768 chg coeffs, 0 upgd conss, 19650 impls, 0 clqs
presolving (2 rounds: 2 fast, 1 medium, 1 exhaustive):
 608 deleted vars, 1 deleted constraints, 0 added constraints, 0 tightened bounds, 0 added holes, 0 changed sides, 5768 changed coefficients
 19650 implications, 0 cliques
presolved problem has 11704 variables (154 bin, 0 int, 0 impl, 11550 cont) and 11783 constraints
  11550 constraints of type <varbound>
    229 constraints of type <linear>
      4 constraints of type <logicor>
Presolving Time: 1.85
transformed 42/100 original solutions to the transformed problem space

 time | node  | left  |LP iter|LP it/n|mem/heur|mdpt |vars |cons |rows |cuts |sepa|confs|strbr|  dualbound   | primalbound  |  gap   | compl. 
 25.0s|     1 |     0 | 26093 |     - |   362M |   0 |  11k|  11k|  11k|   0 |  0 |  14k|  26 | 1.521762e+05 | 1.527810e+05 |   0.40%| unknown
 30.9s|     1 |     2 | 28032 |     - |   364M |   0 |  11k|  11k|  11k|   0 |  2 |  21k|  45 | 1.521762e+05 | 1.527810e+05 |   0.40%| unknown

SCIP Status        : problem is solved [optimal solution found]
Solving Time (sec) : 38.32
Solving Nodes      : 9 (total of 11 nodes in 3 runs)
Primal Bound       : +1.52780973143030e+05 (196 solutions)
Dual Bound         : +1.52780973143030e+05
Gap                : 0.00 %
Solve Status: optimal
Solve Time: 38.34 seconds
Objective Value: 152780.97
